p cnf 213 1411
74 111 124 130 0
105 106 110 122 0
69 119 150 155 0
68 133 137 0
103 128 132 144 0
116 149 152 0
127 135 140 146 156 0
96 100 126 157 0
87 88 90 92 93 0
78 80 83 0
77 120 189 0
73 76 112 0
67 91 99 138 197 0
60 62 63 79 82 85 0
59 102 142 158 159 160 0
104 129 162 164 165 167 0
168 169 170 171 0
153 172 199 201 0
136 141 147 173 0
101 174 177 178 204 0
94 182 206 0
181 184 185 186 209 0
134 187 0
125 188 190 0
109 113 192 193 0
123 196 0
72 98 139 0
65 198 0
117 200 202 203 0
176 205 0
179 207 0
84 180 183 208 0
210 211 212 213 0
56 75 114 0
54 55 121 0
52 53 118 154 0
48 49 50 51 0
46 47 0
39 42 43 45 0
38 151 0
37 95 0
35 36 86 89 0
33 34 0
31 32 108 0
66 97 0
161 163 166 0
27 28 29 0
-26 -126 0
-126 -138 0
-26 -138 0
-59 -174 0
-59 -181 0
-174 -181 0
-117 -179 0
-59 -126 0
-26 -174 0
-26 -117 0
-117 -174 0
-138 -181 0
-138 -179 0
-179 -181 0
-119 -133 0
-25 -119 0
-103 -119 0
-24 -119 0
-119 -149 0
-25 -133 0
-103 -133 0
-24 -133 0
-133 -149 0
-25 -103 0
-24 -25 0
-25 -149 0
-24 -103 0
-103 -149 0
-24 -149 0
-83 -93 0
-77 -93 0
-93 -107 0
-93 -195 0
-93 -99 0
-77 -83 0
-83 -107 0
-83 -195 0
-83 -99 0
-77 -107 0
-77 -195 0
-77 -99 0
-107 -195 0
-99 -107 0
-99 -195 0
-162 -168 0
-162 -172 0
-162 -204 0
-162 -206 0
-162 -184 0
-168 -172 0
-168 -204 0
-168 -206 0
-168 -184 0
-172 -204 0
-172 -206 0
-172 -184 0
-204 -206 0
-184 -204 0
-184 -206 0
-113 -188 0
-123 -188 0
-113 -123 0
-55 -75 0
-51 -75 0
-47 -75 0
-23 -75 0
-51 -55 0
-47 -55 0
-23 -55 0
-47 -51 0
-23 -51 0
-23 -47 0
-58 -64 0
-29 -64 0
-22 -64 0
-21 -64 0
-29 -58 0
-22 -58 0
-21 -58 0
-22 -29 0
-21 -29 0
-21 -22 0
-93 -119 0
-119 -162 0
-93 -162 0
-83 -133 0
-133 -168 0
-75 -133 0
-64 -133 0
-83 -168 0
-75 -83 0
-64 -83 0
-75 -168 0
-64 -168 0
-64 -75 0
-25 -77 0
-25 -172 0
-25 -55 0
-25 -58 0
-77 -172 0
-55 -77 0
-58 -77 0
-55 -172 0
-58 -172 0
-55 -58 0
-103 -107 0
-103 -204 0
-103 -188 0
-51 -103 0
-29 -103 0
-107 -204 0
-107 -188 0
-51 -107 0
-29 -107 0
-188 -204 0
-51 -204 0
-29 -204 0
-51 -188 0
-29 -188 0
-29 -51 0
-24 -195 0
-24 -206 0
-24 -113 0
-24 -47 0
-22 -24 0
-195 -206 0
-113 -195 0
-47 -195 0
-22 -195 0
-113 -206 0
-47 -206 0
-22 -206 0
-47 -113 0
-22 -113 0
-22 -47 0
-99 -149 0
-149 -184 0
-123 -149 0
-23 -149 0
-21 -149 0
-99 -184 0
-99 -123 0
-23 -99 0
-21 -99 0
-123 -184 0
-23 -184 0
-21 -184 0
-23 -123 0
-21 -123 0
-21 -23 0
-110 -130 0
-130 -150 0
-130 -137 0
-20 -130 0
-130 -144 0
-44 -130 0
-110 -150 0
-110 -137 0
-20 -110 0
-110 -144 0
-44 -110 0
-137 -150 0
-20 -150 0
-144 -150 0
-44 -150 0
-20 -137 0
-137 -144 0
-44 -137 0
-20 -144 0
-20 -44 0
-44 -144 0
-156 -157 0
-92 -156 0
-80 -156 0
-76 -156 0
-19 -156 0
-18 -156 0
-92 -157 0
-80 -157 0
-76 -157 0
-19 -157 0
-18 -157 0
-80 -92 0
-76 -92 0
-19 -92 0
-18 -92 0
-76 -80 0
-19 -80 0
-18 -80 0
-19 -76 0
-18 -76 0
-18 -19 0
-85 -102 0
-85 -104 0
-85 -169 0
-85 -173 0
-85 -177 0
-85 -94 0
-102 -104 0
-102 -169 0
-102 -173 0
-102 -177 0
-94 -102 0
-104 -169 0
-104 -173 0
-104 -177 0
-94 -104 0
-169 -173 0
-169 -177 0
-94 -169 0
-173 -177 0
-94 -173 0
-94 -177 0
-41 -115 0
-41 -134 0
-41 -190 0
-41 -192 0
-115 -134 0
-115 -190 0
-115 -192 0
-134 -190 0
-134 -192 0
-190 -192 0
-72 -198 0
-72 -81 0
-72 -200 0
-72 -176 0
-81 -198 0
-198 -200 0
-176 -198 0
-81 -200 0
-81 -176 0
-176 -200 0
-183 -210 0
-17 -183 0
-114 -183 0
-118 -183 0
-17 -210 0
-114 -210 0
-118 -210 0
-17 -114 0
-17 -118 0
-114 -118 0
-108 -194 0
-97 -108 0
-16 -108 0
-108 -161 0
-97 -194 0
-16 -194 0
-161 -194 0
-16 -97 0
-97 -161 0
-16 -161 0
-130 -156 0
-85 -130 0
-41 -130 0
-72 -130 0
-130 -183 0
-108 -130 0
-85 -156 0
-41 -156 0
-72 -156 0
-156 -183 0
-108 -156 0
-41 -85 0
-72 -85 0
-85 -183 0
-85 -108 0
-41 -72 0
-41 -183 0
-41 -108 0
-72 -183 0
-72 -108 0
-108 -183 0
-110 -157 0
-102 -110 0
-110 -115 0
-110 -198 0
-110 -210 0
-110 -194 0
-102 -157 0
-115 -157 0
-157 -198 0
-157 -210 0
-157 -194 0
-102 -115 0
-102 -198 0
-102 -210 0
-102 -194 0
-115 -198 0
-115 -210 0
-115 -194 0
-198 -210 0
-194 -198 0
-194 -210 0
-92 -150 0
-104 -150 0
-134 -150 0
-81 -150 0
-17 -150 0
-97 -150 0
-92 -104 0
-92 -134 0
-81 -92 0
-17 -92 0
-92 -97 0
-104 -134 0
-81 -104 0
-17 -104 0
-97 -104 0
-81 -134 0
-17 -134 0
-97 -134 0
-17 -81 0
-81 -97 0
-17 -97 0
-80 -137 0
-137 -169 0
-114 -137 0
-16 -137 0
-80 -169 0
-80 -114 0
-16 -80 0
-114 -169 0
-16 -169 0
-16 -114 0
-20 -76 0
-20 -173 0
-20 -118 0
-20 -161 0
-76 -173 0
-76 -118 0
-76 -161 0
-118 -173 0
-161 -173 0
-118 -161 0
-19 -144 0
-144 -177 0
-144 -190 0
-144 -200 0
-19 -177 0
-19 -190 0
-19 -200 0
-177 -190 0
-177 -200 0
-190 -200 0
-18 -44 0
-44 -94 0
-44 -192 0
-44 -176 0
-18 -94 0
-18 -192 0
-18 -176 0
-94 -192 0
-94 -176 0
-176 -192 0
-106 -124 0
-68 -124 0
-68 -106 0
-63 -142 0
-63 -170 0
-142 -170 0
-45 -143 0
-63 -124 0
-124 -143 0
-63 -143 0
-106 -142 0
-45 -106 0
-45 -142 0
-68 -170 0
-90 -146 0
-67 -146 0
-67 -90 0
-62 -164 0
-62 -185 0
-164 -185 0
-15 -84 0
-62 -146 0
-84 -146 0
-62 -84 0
-90 -164 0
-15 -90 0
-15 -164 0
-67 -185 0
-100 -127 0
-88 -127 0
-78 -127 0
-112 -127 0
-88 -100 0
-78 -100 0
-100 -112 0
-78 -88 0
-88 -112 0
-78 -112 0
-60 -158 0
-60 -165 0
-60 -171 0
-60 -147 0
-158 -165 0
-158 -171 0
-147 -158 0
-165 -171 0
-147 -165 0
-147 -171 0
-65 -139 0
-57 -139 0
-57 -65 0
-180 -211 0
-14 -180 0
-56 -180 0
-53 -180 0
-50 -180 0
-14 -211 0
-56 -211 0
-53 -211 0
-50 -211 0
-14 -56 0
-14 -53 0
-14 -50 0
-53 -56 0
-50 -56 0
-50 -53 0
-13 -43 0
-13 -38 0
-13 -145 0
-13 -89 0
-13 -34 0
-38 -43 0
-43 -145 0
-43 -89 0
-34 -43 0
-38 -145 0
-38 -89 0
-34 -38 0
-89 -145 0
-34 -145 0
-34 -89 0
-12 -32 0
-32 -66 0
-32 -61 0
-32 -163 0
-28 -32 0
-12 -66 0
-12 -61 0
-12 -163 0
-12 -28 0
-61 -66 0
-66 -163 0
-28 -66 0
-61 -163 0
-28 -61 0
-28 -163 0
-60 -127 0
-127 -139 0
-127 -180 0
-13 -127 0
-32 -127 0
-60 -139 0
-60 -180 0
-13 -60 0
-32 -60 0
-139 -180 0
-13 -139 0
-32 -139 0
-13 -180 0
-32 -180 0
-13 -32 0
-100 -158 0
-65 -100 0
-100 -211 0
-43 -100 0
-12 -100 0
-65 -158 0
-158 -211 0
-43 -158 0
-12 -158 0
-65 -211 0
-43 -65 0
-12 -65 0
-43 -211 0
-12 -211 0
-12 -43 0
-88 -165 0
-57 -88 0
-14 -88 0
-38 -88 0
-66 -88 0
-57 -165 0
-14 -165 0
-38 -165 0
-66 -165 0
-14 -57 0
-38 -57 0
-57 -66 0
-14 -38 0
-14 -66 0
-38 -66 0
-78 -171 0
-56 -78 0
-78 -145 0
-61 -78 0
-56 -171 0
-145 -171 0
-61 -171 0
-56 -145 0
-56 -61 0
-61 -145 0
-112 -147 0
-53 -112 0
-89 -112 0
-112 -163 0
-53 -147 0
-89 -147 0
-147 -163 0
-53 -89 0
-53 -163 0
-89 -163 0
-34 -50 0
-28 -50 0
-28 -34 0
-74 -155 0
-11 -74 0
-74 -132 0
-40 -74 0
-74 -116 0
-11 -155 0
-132 -155 0
-40 -155 0
-116 -155 0
-11 -132 0
-11 -40 0
-11 -116 0
-40 -132 0
-116 -132 0
-40 -116 0
-87 -135 0
-135 -189 0
-30 -135 0
-71 -135 0
-135 -197 0
-87 -189 0
-30 -87 0
-71 -87 0
-87 -197 0
-30 -189 0
-71 -189 0
-189 -197 0
-30 -71 0
-30 -197 0
-71 -197 0
-82 -167 0
-82 -199 0
-82 -101 0
-82 -182 0
-82 -209 0
-167 -199 0
-101 -167 0
-167 -182 0
-167 -209 0
-101 -199 0
-182 -199 0
-199 -209 0
-101 -182 0
-101 -209 0
-182 -209 0
-148 -187 0
-125 -148 0
-109 -148 0
-148 -196 0
-125 -187 0
-109 -187 0
-187 -196 0
-109 -125 0
-125 -196 0
-109 -196 0
-10 -98 0
-98 -203 0
-98 -205 0
-98 -207 0
-10 -203 0
-10 -205 0
-10 -207 0
-203 -205 0
-203 -207 0
-205 -207 0
-46 -49 0
-9 -49 0
-9 -46 0
-74 -135 0
-74 -82 0
-74 -148 0
-74 -98 0
-82 -135 0
-135 -148 0
-98 -135 0
-82 -148 0
-82 -98 0
-98 -148 0
-87 -155 0
-155 -167 0
-155 -187 0
-10 -155 0
-87 -167 0
-87 -187 0
-10 -87 0
-167 -187 0
-10 -167 0
-10 -187 0
-11 -189 0
-11 -199 0
-189 -199 0
-30 -132 0
-101 -132 0
-125 -132 0
-132 -203 0
-49 -132 0
-30 -101 0
-30 -125 0
-30 -203 0
-30 -49 0
-101 -125 0
-101 -203 0
-49 -101 0
-125 -203 0
-49 -125 0
-49 -203 0
-40 -71 0
-40 -182 0
-40 -109 0
-40 -205 0
-40 -46 0
-71 -182 0
-71 -109 0
-71 -205 0
-46 -71 0
-109 -182 0
-182 -205 0
-46 -182 0
-109 -205 0
-46 -109 0
-46 -205 0
-116 -197 0
-116 -209 0
-116 -196 0
-116 -207 0
-9 -116 0
-197 -209 0
-196 -197 0
-197 -207 0
-9 -197 0
-196 -209 0
-207 -209 0
-9 -209 0
-196 -207 0
-9 -196 0
-9 -207 0
-111 -122 0
-8 -111 0
-7 -111 0
-111 -128 0
-111 -152 0
-8 -122 0
-7 -122 0
-122 -128 0
-122 -152 0
-7 -8 0
-8 -128 0
-8 -152 0
-7 -128 0
-7 -152 0
-128 -152 0
-96 -140 0
-120 -140 0
-73 -140 0
-6 -140 0
-91 -140 0
-96 -120 0
-73 -96 0
-6 -96 0
-91 -96 0
-73 -120 0
-6 -120 0
-91 -120 0
-6 -73 0
-73 -91 0
-6 -91 0
-79 -159 0
-79 -201 0
-79 -136 0
-79 -178 0
-79 -186 0
-159 -201 0
-136 -159 0
-159 -178 0
-159 -186 0
-136 -201 0
-178 -201 0
-186 -201 0
-136 -178 0
-136 -186 0
-178 -186 0
-208 -212 0
-54 -208 0
-154 -208 0
-48 -208 0
-5 -208 0
-54 -212 0
-154 -212 0
-48 -212 0
-5 -212 0
-54 -154 0
-48 -54 0
-5 -54 0
-48 -154 0
-5 -154 0
-5 -48 0
-42 -131 0
-37 -131 0
-86 -131 0
-33 -131 0
-131 -191 0
-37 -42 0
-42 -86 0
-33 -42 0
-42 -191 0
-37 -86 0
-33 -37 0
-37 -191 0
-33 -86 0
-86 -191 0
-33 -191 0
-31 -70 0
-4 -31 0
-31 -166 0
-27 -31 0
-31 -175 0
-4 -70 0
-70 -166 0
-27 -70 0
-70 -175 0
-4 -166 0
-4 -27 0
-4 -175 0
-27 -166 0
-166 -175 0
-27 -175 0
-111 -140 0
-79 -111 0
-111 -208 0
-111 -131 0
-31 -111 0
-79 -140 0
-140 -208 0
-131 -140 0
-31 -140 0
-79 -208 0
-79 -131 0
-31 -79 0
-131 -208 0
-31 -208 0
-31 -131 0
-96 -122 0
-122 -159 0
-122 -212 0
-42 -122 0
-70 -122 0
-96 -159 0
-96 -212 0
-42 -96 0
-70 -96 0
-159 -212 0
-42 -159 0
-70 -159 0
-42 -212 0
-70 -212 0
-42 -70 0
-8 -120 0
-8 -201 0
-8 -54 0
-8 -37 0
-4 -8 0
-120 -201 0
-54 -120 0
-37 -120 0
-4 -120 0
-54 -201 0
-37 -201 0
-4 -201 0
-37 -54 0
-4 -54 0
-4 -37 0
-7 -73 0
-7 -136 0
-7 -154 0
-7 -86 0
-7 -166 0
-73 -136 0
-73 -154 0
-73 -86 0
-73 -166 0
-136 -154 0
-86 -136 0
-136 -166 0
-86 -154 0
-154 -166 0
-86 -166 0
-6 -128 0
-128 -178 0
-48 -128 0
-33 -128 0
-27 -128 0
-6 -178 0
-6 -48 0
-6 -33 0
-6 -27 0
-48 -178 0
-33 -178 0
-27 -178 0
-33 -48 0
-27 -48 0
-27 -33 0
-91 -152 0
-152 -186 0
-5 -152 0
-152 -191 0
-152 -175 0
-91 -186 0
-5 -91 0
-91 -191 0
-91 -175 0
-5 -186 0
-186 -191 0
-175 -186 0
-5 -191 0
-5 -175 0
-175 -191 0
-69 -105 0
-3 -105 0
-2 -105 0
-3 -69 0
-2 -69 0
-2 -3 0
-129 -160 0
-153 -160 0
-141 -160 0
-129 -153 0
-129 -141 0
-141 -153 0
-1 -213 0
-121 -213 0
-52 -213 0
-1 -121 0
-1 -52 0
-52 -121 0
-39 -151 0
-39 -95 0
-35 -39 0
-95 -151 0
-35 -151 0
-35 -95 0
-105 -160 0
-105 -213 0
-39 -105 0
-160 -213 0
-39 -160 0
-39 -213 0
-69 -129 0
-1 -69 0
-69 -151 0
-1 -129 0
-129 -151 0
-1 -151 0
-3 -153 0
-3 -121 0
-3 -95 0
-121 -153 0
-95 -153 0
-95 -121 0
-2 -141 0
-2 -52 0
-2 -35 0
-52 -141 0
-35 -141 0
-35 -52 0
-59 -126 0
-93 -119 0
-119 -162 0
-93 -162 0
-110 -130 0
-130 -150 0
-130 -156 0
-130 -157 0
-92 -130 0
-85 -130 0
-102 -130 0
-104 -130 0
-110 -150 0
-110 -156 0
-110 -157 0
-92 -110 0
-85 -110 0
-102 -110 0
-104 -110 0
-150 -156 0
-150 -157 0
-92 -150 0
-85 -150 0
-102 -150 0
-104 -150 0
-156 -157 0
-92 -156 0
-85 -156 0
-102 -156 0
-104 -156 0
-92 -157 0
-85 -157 0
-102 -157 0
-104 -157 0
-85 -92 0
-92 -102 0
-92 -104 0
-85 -102 0
-85 -104 0
-102 -104 0
-106 -124 0
-63 -124 0
-124 -142 0
-63 -106 0
-106 -142 0
-63 -142 0
-90 -146 0
-62 -146 0
-146 -164 0
-62 -90 0
-90 -164 0
-62 -164 0
-100 -127 0
-88 -127 0
-60 -127 0
-127 -158 0
-127 -165 0
-88 -100 0
-60 -100 0
-100 -158 0
-100 -165 0
-60 -88 0
-88 -158 0
-88 -165 0
-60 -158 0
-60 -165 0
-158 -165 0
-74 -155 0
-74 -135 0
-74 -87 0
-74 -82 0
-74 -167 0
-135 -155 0
-87 -155 0
-82 -155 0
-155 -167 0
-87 -135 0
-82 -135 0
-135 -167 0
-82 -87 0
-87 -167 0
-82 -167 0
-111 -122 0
-111 -140 0
-96 -111 0
-79 -111 0
-111 -159 0
-122 -140 0
-96 -122 0
-79 -122 0
-122 -159 0
-96 -140 0
-79 -140 0
-140 -159 0
-79 -96 0
-96 -159 0
-79 -159 0
-69 -105 0
-105 -160 0
-105 -129 0
-69 -160 0
-69 -129 0
-129 -160 0
-25 -133 0
-83 -133 0
-77 -133 0
-133 -168 0
-133 -172 0
-25 -83 0
-25 -77 0
-25 -168 0
-25 -172 0
-77 -83 0
-83 -168 0
-83 -172 0
-77 -168 0
-77 -172 0
-168 -172 0
-20 -137 0
-80 -137 0
-76 -137 0
-137 -169 0
-137 -173 0
-20 -80 0
-20 -76 0
-20 -169 0
-20 -173 0
-76 -80 0
-80 -169 0
-80 -173 0
-76 -169 0
-76 -173 0
-169 -173 0
-68 -170 0
-78 -112 0
-78 -171 0
-78 -147 0
-112 -171 0
-112 -147 0
-147 -171 0
-11 -189 0
-11 -199 0
-189 -199 0
-7 -8 0
-8 -120 0
-8 -73 0
-8 -201 0
-8 -136 0
-7 -120 0
-7 -73 0
-7 -201 0
-7 -136 0
-73 -120 0
-120 -201 0
-120 -136 0
-73 -201 0
-73 -136 0
-136 -201 0
-2 -3 0
-3 -153 0
-3 -141 0
-2 -153 0
-2 -141 0
-141 -153 0
-26 -138 0
-26 -174 0
-26 -181 0
-138 -174 0
-138 -181 0
-174 -181 0
-24 -103 0
-103 -149 0
-103 -107 0
-103 -195 0
-99 -103 0
-103 -204 0
-103 -206 0
-103 -184 0
-24 -149 0
-24 -107 0
-24 -195 0
-24 -99 0
-24 -204 0
-24 -206 0
-24 -184 0
-107 -149 0
-149 -195 0
-99 -149 0
-149 -204 0
-149 -206 0
-149 -184 0
-107 -195 0
-99 -107 0
-107 -204 0
-107 -206 0
-107 -184 0
-99 -195 0
-195 -204 0
-195 -206 0
-184 -195 0
-99 -204 0
-99 -206 0
-99 -184 0
-204 -206 0
-184 -204 0
-184 -206 0
-44 -144 0
-19 -144 0
-18 -144 0
-144 -177 0
-94 -144 0
-19 -44 0
-18 -44 0
-44 -177 0
-44 -94 0
-18 -19 0
-19 -177 0
-19 -94 0
-18 -177 0
-18 -94 0
-94 -177 0
-67 -185 0
-40 -132 0
-116 -132 0
-30 -132 0
-71 -132 0
-132 -197 0
-101 -132 0
-132 -182 0
-132 -209 0
-40 -116 0
-30 -40 0
-40 -71 0
-40 -197 0
-40 -101 0
-40 -182 0
-40 -209 0
-30 -116 0
-71 -116 0
-116 -197 0
-101 -116 0
-116 -182 0
-116 -209 0
-30 -71 0
-30 -197 0
-30 -101 0
-30 -182 0
-30 -209 0
-71 -197 0
-71 -101 0
-71 -182 0
-71 -209 0
-101 -197 0
-182 -197 0
-197 -209 0
-101 -182 0
-101 -209 0
-182 -209 0
-128 -152 0
-6 -128 0
-91 -128 0
-128 -178 0
-128 -186 0
-6 -152 0
-91 -152 0
-152 -178 0
-152 -186 0
-6 -91 0
-6 -178 0
-6 -186 0
-91 -178 0
-91 -186 0
-178 -186 0
-41 -115 0
-41 -134 0
-41 -72 0
-41 -198 0
-41 -81 0
-115 -134 0
-72 -115 0
-115 -198 0
-81 -115 0
-72 -134 0
-134 -198 0
-81 -134 0
-72 -198 0
-72 -81 0
-81 -198 0
-65 -139 0
-57 -139 0
-57 -65 0
-148 -187 0
-98 -148 0
-10 -148 0
-98 -187 0
-10 -187 0
-10 -98 0
-117 -179 0
-113 -188 0
-123 -188 0
-113 -123 0
-190 -192 0
-190 -200 0
-176 -190 0
-192 -200 0
-176 -192 0
-176 -200 0
-109 -125 0
-125 -196 0
-125 -203 0
-125 -205 0
-125 -207 0
-109 -196 0
-109 -203 0
-109 -205 0
-109 -207 0
-196 -203 0
-196 -205 0
-196 -207 0
-203 -205 0
-203 -207 0
-205 -207 0
-183 -210 0
-17 -183 0
-108 -183 0
-183 -194 0
-97 -183 0
-17 -210 0
-108 -210 0
-194 -210 0
-97 -210 0
-17 -108 0
-17 -194 0
-17 -97 0
-108 -194 0
-97 -108 0
-97 -194 0
-45 -143 0
-15 -84 0
-180 -211 0
-14 -180 0
-13 -180 0
-43 -180 0
-38 -180 0
-32 -180 0
-12 -180 0
-66 -180 0
-14 -211 0
-13 -211 0
-43 -211 0
-38 -211 0
-32 -211 0
-12 -211 0
-66 -211 0
-13 -14 0
-14 -43 0
-14 -38 0
-14 -32 0
-12 -14 0
-14 -66 0
-13 -43 0
-13 -38 0
-13 -32 0
-12 -13 0
-13 -66 0
-38 -43 0
-32 -43 0
-12 -43 0
-43 -66 0
-32 -38 0
-12 -38 0
-38 -66 0
-12 -32 0
-32 -66 0
-12 -66 0
-208 -212 0
-131 -208 0
-42 -208 0
-31 -208 0
-70 -208 0
-131 -212 0
-42 -212 0
-31 -212 0
-70 -212 0
-42 -131 0
-31 -131 0
-70 -131 0
-31 -42 0
-42 -70 0
-31 -70 0
-1 -213 0
-39 -213 0
-151 -213 0
-1 -39 0
-1 -151 0
-39 -151 0
-55 -75 0
-64 -75 0
-58 -75 0
-55 -64 0
-55 -58 0
-58 -64 0
-114 -118 0
-16 -114 0
-114 -161 0
-16 -118 0
-118 -161 0
-16 -161 0
-53 -56 0
-56 -145 0
-56 -89 0
-56 -61 0
-56 -163 0
-53 -145 0
-53 -89 0
-53 -61 0
-53 -163 0
-89 -145 0
-61 -145 0
-145 -163 0
-61 -89 0
-89 -163 0
-61 -163 0
-54 -154 0
-37 -54 0
-54 -86 0
-4 -54 0
-54 -166 0
-37 -154 0
-86 -154 0
-4 -154 0
-154 -166 0
-37 -86 0
-4 -37 0
-37 -166 0
-4 -86 0
-86 -166 0
-4 -166 0
-52 -121 0
-95 -121 0
-35 -121 0
-52 -95 0
-35 -52 0
-35 -95 0
-47 -51 0
-23 -51 0
-29 -51 0
-22 -51 0
-21 -51 0
-23 -47 0
-29 -47 0
-22 -47 0
-21 -47 0
-23 -29 0
-22 -23 0
-21 -23 0
-22 -29 0
-21 -29 0
-21 -22 0
-34 -50 0
-28 -50 0
-28 -34 0
-46 -49 0
-9 -49 0
-9 -46 0
-5 -48 0
-33 -48 0
-48 -191 0
-27 -48 0
-48 -175 0
-5 -33 0
-5 -191 0
-5 -27 0
-5 -175 0
-33 -191 0
-27 -33 0
-33 -175 0
-27 -191 0
-175 -191 0
-27 -175 0
